(declare-fun temp114_1 () (_ BitVec 64))
(declare-fun temp114_2 () (_ BitVec 64))
(declare-fun var218410 () (_ BitVec 64))
(declare-fun k!0 () Bool)
(declare-fun ARGNAME_sizes_NAMEEND_LEN () (_ BitVec 64))
(declare-fun temp114_3 () (_ BitVec 64))
(declare-fun var725578 () (_ BitVec 64))
(declare-fun var725580 () (_ BitVec 64))
(declare-fun temp114_4 () (_ BitVec 64))
(declare-fun var922186 () (_ BitVec 64))
(declare-fun temp114_6 () (_ BitVec 64))
(declare-fun temp114_5 () (_ BitVec 64))
(declare-fun var1194436 () (_ BitVec 64))
(declare-fun temp114_7 () (_ BitVec 64))
(declare-fun temp114_8 () (_ BitVec 64))
(declare-fun temp114_9 () (_ BitVec 64))
(declare-fun ARGNAME_sizes_NAMEEND_VAL () (Array (_ BitVec 64) (_ BitVec 64)))
(declare-fun temp114_10 () (_ BitVec 64))
(declare-fun temp114_11 () (_ BitVec 64))
(declare-fun temp114_12 () (_ BitVec 64))
(declare-fun temp114_13 () (_ BitVec 64))
(declare-fun temp114_14 () (_ BitVec 64))
(declare-fun temp114_15 () (_ BitVec 64))
(declare-fun temp114_16 () (_ BitVec 64))
(declare-fun temp114_17 () (_ BitVec 64))
(declare-fun temp114_18 () (_ BitVec 64))
(declare-fun temp114_19 () (_ BitVec 64))
(declare-fun temp114_20 () (_ BitVec 64))
(declare-fun temp114_21 () (_ BitVec 64))
(declare-fun temp114_22 () (_ BitVec 64))
(declare-fun temp114_23 () (_ BitVec 64))
(declare-fun temp114_24 () (_ BitVec 64))
(declare-fun temp114_25 () (_ BitVec 64))
(declare-fun var1194443 () (_ BitVec 64))
(declare-fun temp114_27 () (_ BitVec 64))
(declare-fun temp114_28 () (_ BitVec 64))
(declare-fun temp114_26 () (_ BitVec 64))
(declare-fun temp114_29 () (_ BitVec 64))
(declare-fun var1194448 () (_ BitVec 64))
(declare-fun temp114_30 () (_ BitVec 64))
(declare-fun var1194469 () (_ BitVec 64))
(declare-fun temp114_32 () (_ BitVec 64))
(declare-fun temp114_33 () (_ BitVec 64))
(declare-fun temp114_31 () (_ BitVec 64))
(declare-fun temp114_34 () (_ BitVec 64))
(declare-fun var1194472 () (_ BitVec 64))
(declare-fun var1194474 () (_ BitVec 64))
(declare-fun temp114_37 () (_ BitVec 64))
(declare-fun temp114_38 () (_ BitVec 64))
(declare-fun temp114_36 () (_ BitVec 64))
(declare-fun temp114_39 () (_ BitVec 64))
(declare-fun var1194444 () (_ BitVec 64))
(declare-fun var1194513 () (_ BitVec 64))
(declare-fun temp114_41 () (_ BitVec 64))
(declare-fun var1839690 () (_ BitVec 64))
(declare-fun var1839692 () (_ BitVec 64))
(declare-fun temp114_42 () (_ BitVec 64))
(declare-fun var3105674 () (_ BitVec 64))
(assert (= temp114_1 #x0000000000000000))
(assert (= var218410
   (ite (= ARGNAME_sizes_NAMEEND_LEN temp114_1)
        #x0000000000000001
        #x0000000000000000)))
(assert (= temp114_2 #x0000000000000000))
(assert (= var218410 temp114_2))
(assert (= temp114_3 #x0000000000000005))
(assert (= var725578 temp114_3))
(assert (= var725580 var725578))
(assert (= temp114_4 #x0000000000000005))
(assert (= var922186 temp114_4))
(assert (= temp114_6 #x0000000000000000))
(assert (= temp114_5 temp114_6))
(assert (= var1194436
   (ite (= temp114_5 ARGNAME_sizes_NAMEEND_LEN)
        #x0000000000000001
        #x0000000000000000)))
(assert (= temp114_7 #x0000000000000000))
(assert (= var1194436 temp114_7))
(assert (= temp114_8 #x0000000000000000))
(assert (= temp114_9 temp114_8))
(assert (= temp114_10 (select ARGNAME_sizes_NAMEEND_VAL temp114_9)))
(assert (= temp114_11 #x0000000000000001))
(assert (= temp114_12 temp114_11))
(assert (= temp114_13 (select ARGNAME_sizes_NAMEEND_VAL temp114_12)))
(assert (= temp114_14 #x0000000000000002))
(assert (= temp114_15 temp114_14))
(assert (= temp114_16 (select ARGNAME_sizes_NAMEEND_VAL temp114_15)))
(assert (= temp114_17 #x0000000000000003))
(assert (= temp114_18 temp114_17))
(assert (= temp114_19 (select ARGNAME_sizes_NAMEEND_VAL temp114_18)))
(assert (= temp114_20 #x0000000000000004))
(assert (= temp114_21 temp114_20))
(assert (= temp114_22 (select ARGNAME_sizes_NAMEEND_VAL temp114_21)))
(assert (= temp114_23 #x0000000000000005))
(assert (= temp114_24 temp114_23))
(assert (= temp114_25 (select ARGNAME_sizes_NAMEEND_VAL temp114_24)))
(assert (= temp114_27 var1194443))
(assert (= temp114_28 (select ARGNAME_sizes_NAMEEND_VAL temp114_27)))
(assert (= temp114_26 temp114_28))
(assert (= temp114_29 #xffffffffffffffff))
(assert (= var1194448
   (ite (= temp114_26 temp114_29) #x0000000000000001 #x0000000000000000)))
(assert (= temp114_30 #x0000000000000000))
(assert (= var1194448 temp114_30))
(assert (= temp114_32 var1194469))
(assert (= temp114_33 (select ARGNAME_sizes_NAMEEND_VAL temp114_32)))
(assert (= temp114_31 temp114_33))
(assert (= temp114_34 #xffffffffffffffff))
(assert (= var1194472
   (ite (bvsgt temp114_31 temp114_34) #x0000000000000001 #x0000000000000000)))
(assert (= temp114_37 var1194474))
(assert (= temp114_38 (select ARGNAME_sizes_NAMEEND_VAL temp114_37)))
(assert (= temp114_36 temp114_38))
(assert (= temp114_39 #x0000000000000001))
(assert (= var1194444 (bvadd temp114_5 temp114_39)))
(assert (= var1194513
   (ite (= var1194444 ARGNAME_sizes_NAMEEND_LEN)
        #x0000000000000001
        #x0000000000000000)))
(assert (= temp114_41 #x0000000000000005))
(assert (= var1839690 temp114_41))
(assert (= var1839692 var1839690))
(assert (= temp114_42 #x000000000000003b))
(assert (= var3105674 temp114_42))
(model-add temp114_1 () (_ BitVec 64) #x0000000000000000)
(model-add temp114_2 () (_ BitVec 64) #x0000000000000000)
(model-add var218410 () (_ BitVec 64) #x0000000000000000)
(model-del k!0)
(model-add ARGNAME_sizes_NAMEEND_LEN
           ()
           (_ BitVec 64)
           (ite k!0 #x0000000000000000 (bvnot #x0000000000000000)))






